80 9415531
40 35 5 27 53 17 60 37 43 28 36 22 80 66 65 23 4 21 31 32 77 3 79 41 68 15 75 72 6 14 48 9 25 1 7 19 63 58 39 2 18 16 29 11 26 33 61 34 64 56 24 69 54 67 50 42 57 76 45 70 78 20 47 49 55 71 13 73 52 30 51 46 10 38 8 62 12 59 44 74 
